CapLotSizing_PM/src/Instancias/TCHSLT/6i18p2m/NBB08.OUT
 CG ITER, OVMR, OVMRUB =           1  175000.0000000  175000.0000000
 CG ITER, OVMR, OVMRUB =           2   89485.4296875  175000.0000000
 CG ITER, OVMR, OVMRUB =           3   32506.1406250   39485.1601562
 CG ITER, OVMR, OVMRUB =           4   29182.9882812   39485.1601562
 CG ITER, OVMR, OVMRUB =           5   26638.7402344   37153.5156250
 CG ITER, OVMR, OVMRUB =           6   26842.2675781   37153.5156250
 CG ITER, OVMR, OVMRUB =           7   26159.1406250   37153.5156250
 CG ITER, OVMR, OVMRUB =           8   25641.8945312   37153.5156250
 CG ITER, OVMR, OVMRUB =           9   26930.5527344   37153.5156250
 CG ITER, OVMR, OVMRUB =          10   27948.8359375   37153.5156250
 CG ITER, OVMR, OVMRUB =          11   28607.9707031   37153.5156250
 CG ITER, OVMR, OVMRUB =          12   29156.2226562   37153.5156250
 CG ITER, OVMR, OVMRUB =          13   29686.0468750   37153.5156250
 CG ITER, OVMR, OVMRUB =          14   30109.0175781   36220.5976562
 CG ITER, OVMR, OVMRUB =          15   30226.9433594   36220.5976562
 CG ITER, OVMR, OVMRUB =          16   30366.4355469   36220.5976562
 CG ITER, OVMR, OVMRUB =          17   30502.1660156   36220.5976562
 CG ITER, OVMR, OVMRUB =          18   30723.4707031   36220.5976562
 CG ITER, OVMR, OVMRUB =          19   30927.3769531   36220.5976562
 CG ITER, OVMR, OVMRUB =          20   31039.6113281   36220.5976562
 CG ITER, OVMR, OVMRUB =          21   31205.8066406   36220.5976562
 CG ITER, OVMR, OVMRUB =          22   31273.9296875   35020.8984375
 CG ITER, OVMR, OVMRUB =          23   31266.8769531   35020.8984375
 CG ITER, OVMR, OVMRUB =          24   31324.7226562   34992.7031250
 CG ITER, OVMR, OVMRUB =          25   31359.5000000   34992.7031250
 CG ITER, OVMR, OVMRUB =          26   31402.9101562   34992.7031250
 CG ITER, OVMR, OVMRUB =          27   31459.8789062   34992.7031250
 CG ITER, OVMR, OVMRUB =          28   31499.7421875   34992.7031250
 CG ITER, OVMR, OVMRUB =          29   31495.5937500   34992.7031250
 CG ITER, OVMR, OVMRUB =          30   31517.1386719   34992.7031250
 CG ITER, OVMR, OVMRUB =          31   31536.4511719   34992.7031250
 CG ITER, OVMR, OVMRUB =          32   31563.8730469   34992.7031250
 CG ITER, OVMR, OVMRUB =          33   31526.0000000   34992.7031250
 CG ITER, OVMR, OVMRUB =          34   31549.2246094   34992.7031250
 CG ITER, OVMR, OVMRUB =          35   31571.4257812   34992.7031250
 CG ITER, OVMR, OVMRUB =          36   31594.1328125   34992.7031250
 CG ITER, OVMR, OVMRUB =          37   31598.4492188   34992.7031250
 CG ITER, OVMR, OVMRUB =          38   31606.9082031   34992.7031250
 CG ITER, OVMR, OVMRUB =          39   31612.4804688   34992.7031250
 CG ITER, OVMR, OVMRUB =          40   31597.5566406   34992.7031250
 CG ITER, OVMR, OVMRUB =          41   31593.4804688   34992.7031250
 CG ITER, OVMR, OVMRUB =          42   31594.2929688   34992.7031250
 CG ITER, OVMR, OVMRUB =          43   31590.8847656   34992.7031250
 CG ITER, OVMR, OVMRUB =          44   31527.8984375   34992.7031250
 CG ITER, OVMR, OVMRUB =          45   31459.7753906   34992.7031250
 CG ITER, OVMR, OVMRUB =          46   31447.6191406   34992.7031250
 CG ITER, OVMR, OVMRUB =          47   31450.8808594   34992.7031250
 CG ITER, OVMR, OVMRUB =          48   31451.2187500   34992.7031250
 CG ITER, OVMR, OVMRUB =          49   31452.1406250   34992.7031250
 CG ITER, OVMR, OVMRUB =          50   31452.1406250   34992.7031250
OVLB =   31452.1406250 OVLUB =   34992.7031250 TIME =       5.4699998
